c This Formular is generated by mcnf
c
c    horn? no 
c    forced? no 
c    mixed sat? no 
c    clause length = 3 
c
p cnf 20  91 
 10 7 19 0
-10 17 1 0
-6 -7 -1 0
14 -12 15 0
-1 -6 -4 0
8 4 -7 0
-18 2 -13 0
-20 10 -18 0
-9 -20 -10 0
15 -3 -2 0
-14 20 2 0
11 -6 -9 0
-20 -18 2 0
13 -1 9 0
1 -9 7 0
20 8 -3 0
-8 -17 -16 0
7 -19 13 0
17 -9 6 0
-9 -12 10 0
19 -13 -11 0
%
0

59 66 49 79 24 26 61 91 82 46 93 50 71 74 34 53 61 87 38 29
